[[33, 43, 4, 25, 6, 5, 15, 38, 24, 48, 46, 37, 40, 39, 36, 35, 34, 44, 49, 22, 32], [45, 10, 9, 8, 41, 19, 3, 18, 31, 17, 21, 42, 7, 2, 30], [23, 20, 50, 16, 29, 47, 26, 14, 52, 13, 27, 28, 12, 51, 11]]